19 965
535 8 494 8 321 11
535 8 494 8 321 11
535 8 494 8 321 11
535 8 494 8 321 11
535 8 494 8 321 11
535 8 494 8 321 11
525 7 482 7 360 7 112 9 939 13
525 7 477 7 391 7 243 9 78 11 916 15
521 7 473 7 324 11
520 7 476 7 355 7 196 12
520 7 476 7 355 7 196 12
520 7 476 7 355 7 196 12
525 7 477 7 391 7 244 9 79 11 2 15
525 7 477 7 391 7 244 9 79 11 2 15
535 8 493 8 407 9 310 10 223 16 94 22
525 7 482 7 358 7 165 12
525 7 482 7 358 7 165 12
525 7 479 7 355 7 106 9 927 13
525 7 479 7 356 7 109 9 864 11 699 15 557 22
